examples/inputs/input18.dzn
n = 56;
l = 450;
s = 450;
r = 450;
f = 100;
forbidden = [| 38, 29
	| 8, 47
	| 25, 12
	| 51, 40
	| 5, 18
	| 54, 13
	| 33, 13
	| 30, 43
	| 44, 55
	| 6, 20
	| 17, 7
	| 28, 24
	| 17, 36
	| 23, 56
	| 28, 27
	| 16, 19
	| 56, 3
	| 34, 3
	| 25, 23
	| 15, 38
	| 2, 54
	| 42, 40
	| 54, 10
	| 2, 23
	| 28, 56
	| 25, 14
	| 30, 50
	| 27, 37
	| 18, 38
	| 42, 41
	| 6, 2
	| 15, 14
	| 52, 14
	| 48, 5
	| 27, 25
	| 49, 25
	| 22, 30
	| 51, 42
	| 30, 22
	| 18, 48
	| 6, 45
	| 1, 11
	| 13, 22
	| 9, 50
	| 56, 24
	| 41, 24
	| 8, 5
	| 40, 14
	| 31, 1
	| 12, 12
	| 7, 50
	| 37, 27
	| 12, 24
	| 12, 13
	| 28, 22
	| 3, 9
	| 33, 37
	| 39, 48
	| 22, 20
	| 15, 45
	| 25, 7
	| 36, 13
	| 50, 27
	| 49, 16
	| 29, 13
	| 29, 41
	| 31, 22
	| 55, 30
	| 46, 53
	| 5, 49
	| 21, 16
	| 43, 2
	| 2, 33
	| 3, 31
	| 39, 32
	| 16, 33
	| 45, 36
	| 13, 1
	| 4, 52
	| 20, 55
	| 18, 10
	| 28, 12
	| 3, 1
	| 50, 24
	| 28, 25
	| 18, 17
	| 44, 34
	| 6, 23
	| 52, 12
	| 16, 48
	| 24, 37
	| 51, 41
	| 48, 23
	| 1, 6
	| 53, 17
	| 11, 27
	| 2, 17
	| 11, 37
	| 48, 15
	| 1, 7
	|];