examples/inputs/input18.lp
#const n = 56.
#const l = 450.
#const s = 450.
#const r = 450.
#const f = 100.
val(38, 29, xxx).
val(8, 47, xxx).
val(25, 12, xxx).
val(51, 40, xxx).
val(5, 18, xxx).
val(54, 13, xxx).
val(33, 13, xxx).
val(30, 43, xxx).
val(44, 55, xxx).
val(6, 20, xxx).
val(17, 7, xxx).
val(28, 24, xxx).
val(17, 36, xxx).
val(23, 56, xxx).
val(28, 27, xxx).
val(16, 19, xxx).
val(56, 3, xxx).
val(34, 3, xxx).
val(25, 23, xxx).
val(15, 38, xxx).
val(2, 54, xxx).
val(42, 40, xxx).
val(54, 10, xxx).
val(2, 23, xxx).
val(28, 56, xxx).
val(25, 14, xxx).
val(30, 50, xxx).
val(27, 37, xxx).
val(18, 38, xxx).
val(42, 41, xxx).
val(6, 2, xxx).
val(15, 14, xxx).
val(52, 14, xxx).
val(48, 5, xxx).
val(27, 25, xxx).
val(49, 25, xxx).
val(22, 30, xxx).
val(51, 42, xxx).
val(30, 22, xxx).
val(18, 48, xxx).
val(6, 45, xxx).
val(1, 11, xxx).
val(13, 22, xxx).
val(9, 50, xxx).
val(56, 24, xxx).
val(41, 24, xxx).
val(8, 5, xxx).
val(40, 14, xxx).
val(31, 1, xxx).
val(12, 12, xxx).
val(7, 50, xxx).
val(37, 27, xxx).
val(12, 24, xxx).
val(12, 13, xxx).
val(28, 22, xxx).
val(3, 9, xxx).
val(33, 37, xxx).
val(39, 48, xxx).
val(22, 20, xxx).
val(15, 45, xxx).
val(25, 7, xxx).
val(36, 13, xxx).
val(50, 27, xxx).
val(49, 16, xxx).
val(29, 13, xxx).
val(29, 41, xxx).
val(31, 22, xxx).
val(55, 30, xxx).
val(46, 53, xxx).
val(5, 49, xxx).
val(21, 16, xxx).
val(43, 2, xxx).
val(2, 33, xxx).
val(3, 31, xxx).
val(39, 32, xxx).
val(16, 33, xxx).
val(45, 36, xxx).
val(13, 1, xxx).
val(4, 52, xxx).
val(20, 55, xxx).
val(18, 10, xxx).
val(28, 12, xxx).
val(3, 1, xxx).
val(50, 24, xxx).
val(28, 25, xxx).
val(18, 17, xxx).
val(44, 34, xxx).
val(6, 23, xxx).
val(52, 12, xxx).
val(16, 48, xxx).
val(24, 37, xxx).
val(51, 41, xxx).
val(48, 23, xxx).
val(1, 6, xxx).
val(53, 17, xxx).
val(11, 27, xxx).
val(2, 17, xxx).
val(11, 37, xxx).
val(48, 15, xxx).
val(1, 7, xxx).